Academic license - for non-commercial use only
Set parameter TimeLimit to value 7200

Gurobi Optimizer version 8.0.0 build v8.0.0rc0 (linux64)
Copyright (c) 2018, Gurobi Optimization, LLC

Read LP format model from file abz8_flow.lp
Reading time = 1.35 seconds
: 100577 rows, 180761 columns, 2625450 nonzeros
Optimize a model with 100577 rows, 180761 columns and 2625450 nonzeros
Variable types: 0 continuous, 180761 integer (180760 binary)
Coefficient statistics:
  Matrix range     [1e+00, 7e+02]
  Objective range  [1e+00, 1e+00]
  Bounds range     [1e+00, 7e+02]
  RHS range        [1e+00, 1e+00]
Presolve removed 5304 rows and 4596 columns (presolve time = 5s) ...
Presolve removed 6785 rows and 6127 columns (presolve time = 10s) ...
Presolve removed 6785 rows and 6127 columns
Presolve time: 11.14s
Presolved: 93792 rows, 174634 columns, 2596437 nonzeros
Variable types: 0 continuous, 174634 integer (174633 binary)

Deterministic concurrent LP optimizer: dual simplex and barrier
Showing barrier log only...

Presolve removed 102 rows and 83 columns
Presolved: 93690 rows, 174551 columns, 2596213 nonzeros

Root barrier log...

Elapsed ordering time = 5s
Elapsed ordering time = 10s
Elapsed ordering time = 14s
Elapsed ordering time = 15s
Elapsed ordering time = 20s
Ordering time: 20.57s

Barrier statistics:
 AA' NZ     : 4.717e+06
 Factor NZ  : 7.267e+07 (roughly 700 MBytes of memory)
 Factor Ops : 3.118e+11 (roughly 12 seconds per iteration)
 Threads    : 1

                  Objective                Residual
Iter       Primal          Dual         Primal    Dual     Compl     Time
   0   1.26871579e+03 -6.33886206e+05  1.28e+04 1.09e-01  1.35e+02    59s
   1   7.00592889e+02 -6.49007263e+05  8.76e+02 2.50e-01  1.12e+01    79s
   2   6.86448723e+02 -4.32697738e+05  2.26e+02 2.01e-12  3.35e+00   100s
   3   6.85384088e+02 -2.63337777e+05  1.35e+02 1.80e-12  1.84e+00   120s
   4   6.82367272e+02 -1.22344389e+05  5.27e+01 1.73e-12  7.26e-01   140s
   5   6.81167416e+02 -4.96832106e+04  2.67e+01 1.47e-12  3.14e-01   160s
   6   6.80659507e+02 -3.57170344e+04  1.60e+01 1.09e-12  2.00e-01   179s
   7   6.80102844e+02 -1.48775853e+04  4.53e+00 7.43e-13  6.88e-02   200s
   8   6.79740432e+02 -1.07463916e+04  2.11e+00 7.53e-13  4.26e-02   220s
   9   6.78654829e+02 -7.17695093e+03  9.66e-01 3.66e-13  2.62e-02   240s
  10   6.65860519e+02 -2.54764854e+03  1.85e-01 2.20e-13  9.47e-03   261s
  11   6.43837160e+02 -6.23051316e+01  1.45e-03 1.44e-13  1.97e-03   283s
  12   6.23458903e+02  1.57252369e+02  7.43e-04 9.59e-14  1.30e-03   303s
  13   6.02993971e+02  3.08263897e+02  3.60e-04 6.44e-14  8.23e-04   323s
  14   5.85769694e+02  3.96409465e+02  2.07e-04 4.25e-14  5.28e-04   344s
  15   5.62592009e+02  4.51375550e+02  7.35e-05 2.48e-14  3.10e-04   366s
  16   5.52036069e+02  4.95693984e+02  4.39e-05 2.25e-14  1.57e-04   386s
  17   5.44161343e+02  5.12956913e+02  2.43e-05 2.00e-14  8.71e-05   407s
  18   5.35356713e+02  5.27315877e+02  4.35e-06 1.26e-14  2.24e-05   429s
  19   5.32725182e+02  5.29910623e+02  1.25e-06 1.00e-14  7.85e-06   452s
  20   5.31653743e+02  5.30790001e+02  2.59e-07 1.68e-14  2.41e-06   474s
  21   5.31419536e+02  5.31083366e+02  9.97e-08 1.90e-14  9.38e-07   494s
  22   5.31277808e+02  5.31202281e+02  1.50e-08 1.74e-14  2.11e-07   516s
  23   5.31246063e+02  5.31235434e+02  1.58e-09 1.79e-14  2.97e-08   540s
  24   5.31242360e+02  5.31239542e+02  4.67e-10 1.01e-14  7.86e-09   561s
  25   5.31240937e+02  5.31240328e+02  3.42e-10 1.04e-14  1.70e-09   583s
  26   5.31240598e+02  5.31240432e+02  3.29e-10 1.37e-14  4.62e-10   603s
  27   5.31240536e+02  5.31240511e+02  3.95e-10 2.23e-14  6.72e-11   624s
  28   5.31240526e+02  5.31240515e+02  6.46e-09 1.15e-14  3.22e-11   643s
  29   5.31240519e+02  5.31240518e+02  1.36e-09 2.15e-14  1.90e-12   666s

Barrier solved model in 29 iterations and 665.64 seconds
Optimal objective 5.31240519e+02


Root crossover log...

   42386 variables added to crossover basis                      670s
   43256 variables added to crossover basis                      675s
   43916 variables added to crossover basis                      680s

   49577 DPushes remaining with DInf 4.9116705e+01               683s
   16208 DPushes remaining with DInf 2.3619949e+01               714s
    6110 DPushes remaining with DInf 1.2764974e+01               732s
    2143 DPushes remaining with DInf 8.5393948e+00               741s
     771 DPushes remaining with DInf 7.2844999e+00               745s
       0 DPushes remaining with DInf 6.6397722e+03               750s

    8348 PPushes remaining with PInf 1.9365007e-04               750s
    8347 PPushes remaining with PInf 1.9168481e-04               750s
       0 PPushes remaining with PInf 7.0094151e-05               769s

  Push phase complete: Pinf 7.0094151e-05, Dinf 9.0379512e+02    769s


Root simplex log...

Iteration    Objective       Primal Inf.    Dual Inf.      Time
   57915    5.3124052e+02   0.000000e+00   9.037951e+02    770s
   58245    5.3124052e+02   0.000000e+00   7.925618e+01    774s
   58655    5.3124052e+02   0.000000e+00   3.995269e+01    778s
   59065    5.3124052e+02   0.000000e+00   1.476774e+01    782s
   59435    5.3124052e+02   0.000000e+00   2.788732e+00    786s
   59675    5.3124051e+02   0.000000e+00   8.411689e+02    791s
   60155    5.3124051e+02   0.000000e+00   2.607120e+00    799s
   60365    5.3124051e+02   0.000000e+00   1.383347e+00    804s
   60615    5.3124051e+02   0.000000e+00   2.196214e-01    808s
   60805    5.3124052e+02   7.077202e-03   0.000000e+00    812s
   60908    5.3124052e+02   0.000000e+00   0.000000e+00    816s
   60908    5.3124052e+02   0.000000e+00   0.000000e+00    817s
Concurrent spin time: 0.00s

Solved with barrier

Root relaxation: objective 5.312405e+02, 60908 iterations, 799.89 seconds
Total elapsed time = 904.97s
Total elapsed time = 921.42s
Total elapsed time = 937.15s
Total elapsed time = 942.19s

    Nodes    |    Current Node    |     Objective Bounds      |     Work
 Expl Unexpl |  Obj  Depth IntInf | Incumbent    BestBd   Gap | It/Node Time

     0     0  531.24052    0 31692          -  531.24052      -     -  948s
     0     0          -    0               -  531.24052      -     - 7200s

Cutting planes:
  Clique: 8
  MIR: 1

Explored 1 nodes (325106 simplex iterations) in 7200.04 seconds
Thread count was 4 (of 4 available processors)

Solution count 0

Time limit reached
Best objective -, best bound 5.320000000000e+02, gap -

Unable to retrieve attribute 'X'

